p cnf 10 80
-8 3 0
10 -1 0
-10 -9 0
-8 9 0
8 4 0
9 -10 0
-7 -10 0
4 -4 0
-4 -9 0
8 4 0
-6 10 0
2 3 0
9 -3 0
8 -4 0
-7 1 0
1 -9 0
10 -10 0
-8 4 0
-8 9 0
-1 -10 0
-8 6 0
1 6 0
-8 -10 0
-10 -1 0
9 10 0
9 3 0
-5 -10 0
9 2 0
8 2 0
-7 -1 0
8 -10 0
-8 4 0
-7 6 0
-2 7 0
2 10 0
2 -10 0
-8 -10 0
1 -10 0
-7 10 0
8 -10 0
2 7 0
1 4 0
10 -10 0
1 -2 0
-8 -10 0
-5 5 0
5 -2 0
-8 -5 0
-7 3 0
-6 -2 0
-9 7 0
-5 -3 0
9 7 0
8 3 0
8 -4 0
-7 -9 0
-7 2 0
10 3 0
2 -4 0
-7 -2 0
4 6 0
8 -6 0
-8 5 0
8 -8 0
9 6 0
3 -4 0
-1 -9 0
-7 3 0
-7 -4 0
2 -3 0
2 4 0
-5 -3 0
-5 -4 0
-6 -10 0
-10 6 0
8 2 0
8 -1 0
3 7 0
1 7 0
-8 -6 0
